
===== New CPLEX run =====
Instance: /home/yorig/tuner/mpils-tests/instances/miplib/medium-1/momentum1.mps
Config: /scratch/yorig/mpils-results-grid-ticks-10000/medium-1/16proc/seed-5/6_momentum1_seed-5_20260425_215516/expansion/config_param_CPXPARAM_MIP_Strategy_SubAlgorithm_3_iter_2.prm
========================

Selected objective sense:  MINIMIZE
Selected objective  name:  MINIMIZE
Selected RHS        name:  rhs
Selected bound      name:  bnd
Version identifier: 22.1.2.0 | 2024-11-26 | 0edbb82fd
CPXPARAM_Threads                                 8
CPXPARAM_Parallel                                1
CPXPARAM_MIP_Cuts_Cliques                        -1
CPXPARAM_MIP_Strategy_SubAlgorithm               3
CPXPARAM_MIP_Cuts_FlowCovers                     2
CPXPARAM_MIP_Cuts_Implied                        1
CPXPARAM_MIP_Limits_GomoryCand                   25
CPXPARAM_MIP_Cuts_Gomory                         1
CPXPARAM_MIP_Cuts_PathCut                        1
CPXPARAM_MIP_Cuts_Disjunctive                    -1
CPXPARAM_Emphasis_MIP                            4
CPXPARAM_DetTimeLimit                            10000
Tried aggregator 3 times.
MIP Presolve eliminated 30810 rows and 1362 columns.
MIP Presolve modified 22293 coefficients.
Aggregator did 232 substitutions.
Reduced MIP has 11638 rows, 3580 columns, and 46688 nonzeros.
Reduced MIP has 1625 binaries, 0 generals, 0 SOSs, and 0 indicators.
Presolve time = 0.10 sec. (139.58 ticks)
Found incumbent of value 533875.101733 after 0.12 sec. (156.27 ticks)
Probing fixed 392 vars, tightened 1078 bounds.
Probing changed sense of 113 constraints.
Probing time = 0.08 sec. (90.30 ticks)
Cover probing fixed 0 vars, tightened 267 bounds.
Tried aggregator 2 times.
MIP Presolve eliminated 3295 rows and 847 columns.
MIP Presolve modified 7082 coefficients.
Aggregator did 11 substitutions.
Reduced MIP has 8332 rows, 2722 columns, and 31418 nonzeros.
Reduced MIP has 1168 binaries, 0 generals, 0 SOSs, and 0 indicators.
Presolve time = 0.04 sec. (44.43 ticks)
Probing fixed 1 vars, tightened 256 bounds.
Probing time = 0.05 sec. (44.20 ticks)
Cover probing fixed 0 vars, tightened 190 bounds.
Tried aggregator 1 time.
Detecting symmetries...
MIP Presolve eliminated 26 rows and 2 columns.
MIP Presolve modified 5059 coefficients.
Reduced MIP has 8306 rows, 2720 columns, and 31355 nonzeros.
Reduced MIP has 1167 binaries, 0 generals, 0 SOSs, and 0 indicators.
Presolve time = 0.02 sec. (22.06 ticks)
Probing fixed 0 vars, tightened 90 bounds.
Probing time = 0.05 sec. (40.55 ticks)
Cover probing fixed 0 vars, tightened 69 bounds.
Clique table members: 18692.
MIP emphasis: hidden feasible solutions.
MIP search method: dynamic search.
Parallel mode: deterministic, using up to 8 threads.
Root relaxation solution time = 0.05 sec. (69.97 ticks)

        Nodes                                         Cuts/
   Node  Left     Objective  IInf  Best Integer    Best Bound    ItCnt     Gap

*     0+    0                       533875.1017    44880.8652            91.59%
*     0+    0                       533847.9795    44880.8652            91.59%
*     0+    0                       333826.8649    44880.8652            86.56%
*     0+    0                       333809.0666    44880.8652            86.55%
      0     0    79213.0345   216   333809.0666    79213.0345     1739   76.27%
      0     0    93063.4940   237   333809.0666     Cuts: 172     9050   72.12%
      0     0    96257.9548   295   333809.0666      Cuts: 62    13062   71.16%
      0     0    96259.5191   268   333809.0666      Cuts: 28    19215   71.16%
*     0+    0                       320984.2727    96259.5191            70.01%
*     0+    0                       320984.2726    96259.5191            70.01%
      0     0  -1.00000e+75     0   320984.2726    96259.5191    19215   70.01%
      0     0    96273.4683   271   320984.2726      Cuts: 37    23188   70.01%
      0     0    96277.8946   257   320984.2726      Cuts: 30    27530   70.01%
Detecting symmetries...
      0     0    96278.1166   264   320984.2726      Cuts: 11    31844   70.01%
      0     0    96281.8558   301   320984.2726  Flowcuts: 12    36192   70.00%

Implied bound cuts applied:  3
Flow cuts applied:  110
Flow path cuts applied:  0
Zero-half cuts applied:  21
Gomory fractional cuts applied:  4

Root node processing (before b&c):
  Real time             =    6.19 sec. (10827.28 ticks)
Parallel b&c, 8 threads:
  Real time             =    0.00 sec. (0.00 ticks)
  Sync time (average)   =    0.00 sec.
  Wait time (average)   =    0.00 sec.
                          ------------
Total (root+branch&cut) =    6.19 sec. (10827.28 ticks)
Gap: 70%
Upper bound: 320984
Lower bound: 96282.2
End of CPLEX run. Time: 6.19486 seconds

===== New CPLEX run =====
Instance: /home/yorig/tuner/mpils-tests/instances/miplib/medium-1/momentum1.mps
Config: /scratch/yorig/mpils-results-grid-ticks-10000/medium-1/16proc/seed-5/6_momentum1_seed-5_20260425_215516/expansion/config_param_CPXPARAM_MIP_Strategy_SubAlgorithm_4_iter_2.prm
========================

Selected objective sense:  MINIMIZE
Selected objective  name:  MINIMIZE
Selected RHS        name:  rhs
Selected bound      name:  bnd
Version identifier: 22.1.2.0 | 2024-11-26 | 0edbb82fd
CPXPARAM_Threads                                 8
CPXPARAM_Parallel                                1
CPXPARAM_MIP_Cuts_Cliques                        -1
CPXPARAM_MIP_Strategy_SubAlgorithm               4
CPXPARAM_MIP_Cuts_FlowCovers                     2
CPXPARAM_MIP_Cuts_Implied                        1
CPXPARAM_MIP_Limits_GomoryCand                   25
CPXPARAM_MIP_Cuts_Gomory                         1
CPXPARAM_MIP_Cuts_PathCut                        1
CPXPARAM_MIP_Cuts_Disjunctive                    -1
CPXPARAM_Emphasis_MIP                            4
CPXPARAM_DetTimeLimit                            10000
Tried aggregator 3 times.
MIP Presolve eliminated 30810 rows and 1362 columns.
MIP Presolve modified 22293 coefficients.
Aggregator did 232 substitutions.
Reduced MIP has 11638 rows, 3580 columns, and 46688 nonzeros.
Reduced MIP has 1625 binaries, 0 generals, 0 SOSs, and 0 indicators.
Presolve time = 0.10 sec. (139.58 ticks)
Found incumbent of value 533875.101733 after 0.12 sec. (154.72 ticks)
Probing fixed 392 vars, tightened 1078 bounds.
Probing changed sense of 113 constraints.
Probing time = 0.08 sec. (90.30 ticks)
Cover probing fixed 0 vars, tightened 267 bounds.
Tried aggregator 2 times.
MIP Presolve eliminated 3295 rows and 847 columns.
MIP Presolve modified 7082 coefficients.
Aggregator did 11 substitutions.
Reduced MIP has 8332 rows, 2722 columns, and 31418 nonzeros.
Reduced MIP has 1168 binaries, 0 generals, 0 SOSs, and 0 indicators.
Presolve time = 0.04 sec. (44.43 ticks)
Probing fixed 1 vars, tightened 256 bounds.
Probing time = 0.05 sec. (44.20 ticks)
Cover probing fixed 0 vars, tightened 190 bounds.
Tried aggregator 1 time.
Detecting symmetries...
MIP Presolve eliminated 26 rows and 2 columns.
MIP Presolve modified 5059 coefficients.
Reduced MIP has 8306 rows, 2720 columns, and 31355 nonzeros.
Reduced MIP has 1167 binaries, 0 generals, 0 SOSs, and 0 indicators.
Presolve time = 0.02 sec. (22.06 ticks)
Probing fixed 0 vars, tightened 90 bounds.
Probing time = 0.04 sec. (40.55 ticks)
Cover probing fixed 0 vars, tightened 69 bounds.
Clique table members: 18692.
MIP emphasis: hidden feasible solutions.
MIP search method: dynamic search.
Parallel mode: deterministic, using up to 8 threads.
Root relaxation solution time = 0.05 sec. (69.97 ticks)

        Nodes                                         Cuts/
   Node  Left     Objective  IInf  Best Integer    Best Bound    ItCnt     Gap

*     0+    0                       533875.1017    44880.8652            91.59%
*     0+    0                       533847.9795    44880.8652            91.59%
*     0+    0                       333826.8649    44880.8652            86.56%
*     0+    0                       333809.0666    44880.8652            86.55%
      0     0    79213.0345   216   333809.0666    79213.0345     1739   76.27%
      0     0    90064.9848   246   333809.0666     Cuts: 174     1803   73.02%
      0     0    96255.4200   295   333809.0666      Cuts: 56     1865   71.16%
      0     0    96260.2527   268   333809.0666      Cuts: 51     1922   71.16%
*     0+    0                       333809.0573    96260.2527            71.16%
*     0+    0                       333763.6058    96260.2527            71.16%
      0     0  -1.00000e+75     0   333763.6058    96260.2527     1922   71.16%
      0     0    96272.1394   272   333763.6058      Cuts: 41     1992   71.16%
      0     0    96274.3950   261   333763.6058      Cuts: 28     2057   71.15%
Detecting symmetries...
      0     0    96274.9514   299   333763.6058      Cuts: 21     2128   71.15%
      0     0    96274.9710   298   333763.6058   Flowcuts: 2     2201   71.15%

Implied bound cuts applied:  5
Flow cuts applied:  115
Flow path cuts applied:  0
Zero-half cuts applied:  29
Gomory fractional cuts applied:  5

Root node processing (before b&c):
  Real time             =    6.64 sec. (10091.58 ticks)
Parallel b&c, 8 threads:
  Real time             =    0.00 sec. (0.00 ticks)
  Sync time (average)   =    0.00 sec.
  Wait time (average)   =    0.00 sec.
                          ------------
Total (root+branch&cut) =    6.64 sec. (10091.58 ticks)
Gap: 71.15%
Upper bound: 333764
Lower bound: 96275
End of CPLEX run. Time: 6.64681 seconds
